[2026-03-24T00:33:16.808Z] Pipeline "set_set_set_s000_g002" → 2026_03_24_00_33_16_set_set_set_s000_g002_max.sol
Set parameter WLSAccessID
Set parameter WLSSecret
Set parameter LicenseID to value 2792458
Set parameter LogFile to value "gurobi.log"
Using license file /root/gurobi.lic
Academic license 2792458 - for non-commercial use only - registered to an___@studenti.unipg.it

Gurobi Optimizer version 13.0.1 build v13.0.1rc0 (linux64 - "Ubuntu 24.04.4 LTS")
Copyright (c) 2026, Gurobi Optimization, LLC

Warning: Duplicate section found (read 'binary') - Is a variable name equal to an LP file format keyword?
Warning: Duplicate section found (read 'binary') - Is a variable name equal to an LP file format keyword?
Warning: Duplicate section found (read 'binary') - Is a variable name equal to an LP file format keyword?
Warning: Duplicate section found (read 'binary') - Is a variable name equal to an LP file format keyword?
Warning: Duplicate section found (read 'binary') - Is a variable name equal to an LP file format keyword?
Warning: Duplicate section found (read 'binary') - Is a variable name equal to an LP file format keyword?
Warning: Duplicate section found (read 'binary') - Is a variable name equal to an LP file format keyword?
Warning: Duplicate section found (read 'binary') - Is a variable name equal to an LP file format keyword?
Warning: Duplicate section found (read 'binary') - Is a variable name equal to an LP file format keyword?
Warning: Duplicate section found (read 'binary') - Is a variable name equal to an LP file format keyword?
Warning: Further warnings of this type will be omitted.
Read LP format model from file /root/bgw/data/uploads/2026_03_24_00_33_16_set_set_set_s000_g002_max.lp
Reading time = 0.00 seconds
: 161 rows, 41 columns, 411 nonzeros

Using Gurobi shared library /opt/gurobi1301/linux64/lib/libgurobi.so.13.0.1

CPU model: AMD EPYC-Genoa Processor, instruction set [SSE2|AVX|AVX2|AVX512]
Thread count: 16 physical cores, 16 logical processors, using up to 16 threads

Academic license 2792458 - for non-commercial use only - registered to an___@studenti.unipg.it
Optimize a model with 161 rows, 41 columns and 411 nonzeros (Max)
Model fingerprint: 0x256a8877
Model has 16 linear objective coefficients
Variable types: 21 continuous, 20 integer (20 binary)
Coefficient statistics:
  Matrix range     [1e+00, 6e+00]
  Objective range  [1e+00, 1e+00]
  Bounds range     [1e+00, 1e+00]
  RHS range        [1e+00, 7e+00]

Found heuristic solution: objective 16.0000000
Presolve removed 116 rows and 16 columns
Presolve time: 0.00s
Presolved: 45 rows, 25 columns, 145 nonzeros
Variable types: 0 continuous, 25 integer (20 binary)
Found heuristic solution: objective 44.0000000

Root relaxation: objective 8.600000e+01, 17 iterations, 0.00 seconds (0.00 work units)

    Nodes    |    Current Node    |     Objective Bounds      |     Work
 Expl Unexpl |  Obj  Depth IntInf | Incumbent    BestBd   Gap | It/Node Time

     0     0   86.00000    0   14   44.00000   86.00000  95.5%     -    0s
     0     0   83.66667    0   15   44.00000   83.66667  90.2%     -    0s
     0     0   79.00000    0   13   44.00000   79.00000  79.5%     -    0s
     0     0   79.00000    0   13   44.00000   79.00000  79.5%     -    0s
     0     0   72.77778    0   14   44.00000   72.77778  65.4%     -    0s
     0     0   72.77778    0   14   44.00000   72.77778  65.4%     -    0s
     0     0   69.66667    0   15   44.00000   69.66667  58.3%     -    0s
     0     0   68.88889    0   14   44.00000   68.88889  56.6%     -    0s
     0     0   68.88889    0   13   44.00000   68.88889  56.6%     -    0s
     0     0   67.33333    0   14   44.00000   67.33333  53.0%     -    0s
     0     0   67.33333    0   14   44.00000   67.33333  53.0%     -    0s
     0     0   67.33333    0   14   44.00000   67.33333  53.0%     -    0s
     0     0   66.00000    0   14   44.00000   66.00000  50.0%     -    0s
     0     0   66.00000    0   14   44.00000   66.00000  50.0%     -    0s
     0     2   66.00000    0   13   44.00000   66.00000  50.0%     -    0s

Cutting planes:
  Gomory: 7
  Cover: 1
  MIR: 7
  Zero half: 2

Explored 371 nodes (1350 simplex iterations) in 0.06 seconds (0.01 work units)
Thread count was 16 (of 16 available processors)

Solution count 2: 44 16 

Optimal solution found (tolerance 1.00e-04)
Best objective 4.400000000000e+01, best bound 4.400000000000e+01, gap 0.0000%

Wrote result file '/root/bgw/data/results/2026_03_24_00_33_16_set_set_set_s000_g002_max.sol'

